p cnf 1099
-19 -341
-20 -344
-21 -347
-22 -350
-23 -353
-24 -356
-25 -359
-26 -362
-27 -365
-28 -368
-29 -371
-30 -374
-31 -377
-32 -380
-33 -383
-34 -386
-35 -389
-36 -392
-37 393
-38 394
-39 395
-40 396
-41 397
-42 398
-43 -20
-43 -21
20 21 43
-44 -22
-44 -23
22 23 44
-45 -24
-45 -25
24 25 45
-46 -26
-46 -27
26 27 46
-47 -28
-47 -29
28 29 47
-48 -30
-48 -31
30 31 48
-49 -32
-49 -33
32 33 49
-50 -34
-50 -35
34 35 50
-51 -36
-51 -37
36 37 51
-52 -38
-52 -39
38 39 52
-53 -40
-53 -41
40 41 53
-54 43
-54 44
-43 -44 54
-55 45
-55 46
-45 -46 55
-56 47
-56 48
-47 -48 56
-57 49
-57 50
-49 -50 57
-58 51
-58 52
-51 -52 58
-59 -42
-59 53
42 -53 59
-60 54
-60 55
-54 -55 60
-61 56
-61 57
-56 -57 61
-62 58
-62 59
-58 -59 62
-63 60
-63 61
-60 -61 63
-64 62
-64 63
-62 -63 64
-65 -19
-65 20
19 -20 65
-66 19
-66 -20
-19 20 66
-67 -65
-67 -66
65 66 67
-68 19
-68 20
-19 -20 68
-69 -19
-69 -67
19 67 69
-70 19
-70 67
-19 -67 70
-71 -69
-71 -70
69 70 71
-72 19
-72 -67
-19 67 72
-73 -68
-73 -72
68 72 73
-74 -20
-74 21
20 -21 74
-75 20
-75 -21
-20 21 75
-76 -74
-76 -75
74 75 76
-77 20
-77 21
-20 -21 77
-78 73
-78 -76
-73 76 78
-79 -73
-79 76
73 -76 79
-80 -78
-80 -79
78 79 80
-81 -73
-81 -76
73 76 81
-82 -77
-82 -81
77 81 82
-83 -21
-83 22
21 -22 83
-84 21
-84 -22
-21 22 84
-85 -83
-85 -84
83 84 85
-86 21
-86 22
-21 -22 86
-87 82
-87 -85
-82 85 87
-88 -82
-88 85
82 -85 88
-89 -87
-89 -88
87 88 89
-90 -82
-90 -85
82 85 90
-91 -86
-91 -90
86 90 91
-92 -22
-92 23
22 -23 92
-93 22
-93 -23
-22 23 93
-94 -92
-94 -93
92 93 94
-95 22
-95 23
-22 -23 95
-96 91
-96 -94
-91 94 96
-97 -91
-97 94
91 -94 97
-98 -96
-98 -97
96 97 98
-99 -91
-99 -94
91 94 99
-100 -95
-100 -99
95 99 100
-101 -23
-101 24
23 -24 101
-102 23
-102 -24
-23 24 102
-103 -101
-103 -102
101 102 103
-104 23
-104 24
-23 -24 104
-105 100
-105 -103
-100 103 105
-106 -100
-106 103
100 -103 106
-107 -105
-107 -106
105 106 107
-108 -100
-108 -103
100 103 108
-109 -104
-109 -108
104 108 109
-110 -24
-110 25
24 -25 110
-111 24
-111 -25
-24 25 111
-112 -110
-112 -111
110 111 112
-113 24
-113 25
-24 -25 113
-114 109
-114 -112
-109 112 114
-115 -109
-115 112
109 -112 115
-116 -114
-116 -115
114 115 116
-117 -109
-117 -112
109 112 117
-118 -113
-118 -117
113 117 118
-119 -25
-119 26
25 -26 119
-120 25
-120 -26
-25 26 120
-121 -119
-121 -120
119 120 121
-122 25
-122 26
-25 -26 122
-123 118
-123 -121
-118 121 123
-124 -118
-124 121
118 -121 124
-125 -123
-125 -124
123 124 125
-126 -118
-126 -121
118 121 126
-127 -122
-127 -126
122 126 127
-128 -26
-128 27
26 -27 128
-129 26
-129 -27
-26 27 129
-130 -128
-130 -129
128 129 130
-131 26
-131 27
-26 -27 131
-132 127
-132 -130
-127 130 132
-133 -127
-133 130
127 -130 133
-134 -132
-134 -133
132 133 134
-135 -127
-135 -130
127 130 135
-136 -131
-136 -135
131 135 136
-137 -27
-137 28
27 -28 137
-138 27
-138 -28
-27 28 138
-139 -137
-139 -138
137 138 139
-140 27
-140 28
-27 -28 140
-141 136
-141 -139
-136 139 141
-142 -136
-142 139
136 -139 142
-143 -141
-143 -142
141 142 143
-144 -136
-144 -139
136 139 144
-145 -140
-145 -144
140 144 145
-146 -28
-146 29
28 -29 146
-147 28
-147 -29
-28 29 147
-148 -146
-148 -147
146 147 148
-149 28
-149 29
-28 -29 149
-150 145
-150 -148
-145 148 150
-151 -145
-151 148
145 -148 151
-152 -150
-152 -151
150 151 152
-153 -145
-153 -148
145 148 153
-154 -149
-154 -153
149 153 154
-155 -29
-155 30
29 -30 155
-156 29
-156 -30
-29 30 156
-157 -155
-157 -156
155 156 157
-158 29
-158 30
-29 -30 158
-159 154
-159 -157
-154 157 159
-160 -154
-160 157
154 -157 160
-161 -159
-161 -160
159 160 161
-162 -154
-162 -157
154 157 162
-163 -158
-163 -162
158 162 163
-164 -30
-164 31
30 -31 164
-165 30
-165 -31
-30 31 165
-166 -164
-166 -165
164 165 166
-167 30
-167 31
-30 -31 167
-168 163
-168 -166
-163 166 168
-169 -163
-169 166
163 -166 169
-170 -168
-170 -169
168 169 170
-171 -163
-171 -166
163 166 171
-172 -167
-172 -171
167 171 172
-173 -31
-173 32
31 -32 173
-174 31
-174 -32
-31 32 174
-175 -173
-175 -174
173 174 175
-176 31
-176 32
-31 -32 176
-177 172
-177 -175
-172 175 177
-178 -172
-178 175
172 -175 178
-179 -177
-179 -178
177 178 179
-180 -172
-180 -175
172 175 180
-181 -176
-181 -180
176 180 181
-182 -32
-182 33
32 -33 182
-183 32
-183 -33
-32 33 183
-184 -182
-184 -183
182 183 184
-185 32
-185 33
-32 -33 185
-186 181
-186 -184
-181 184 186
-187 -181
-187 184
181 -184 187
-188 -186
-188 -187
186 187 188
-189 -181
-189 -184
181 184 189
-190 -185
-190 -189
185 189 190
-191 -33
-191 34
33 -34 191
-192 33
-192 -34
-33 34 192
-193 -191
-193 -192
191 192 193
-194 33
-194 34
-33 -34 194
-195 190
-195 -193
-190 193 195
-196 -190
-196 193
190 -193 196
-197 -195
-197 -196
195 196 197
-198 -190
-198 -193
190 193 198
-199 -194
-199 -198
194 198 199
-200 -34
-200 35
34 -35 200
-201 34
-201 -35
-34 35 201
-202 -200
-202 -201
200 201 202
-203 34
-203 35
-34 -35 203
-204 199
-204 -202
-199 202 204
-205 -199
-205 202
199 -202 205
-206 -204
-206 -205
204 205 206
-207 -199
-207 -202
199 202 207
-208 -203
-208 -207
203 207 208
-209 -35
-209 36
35 -36 209
-210 35
-210 -36
-35 36 210
-211 -209
-211 -210
209 210 211
-212 35
-212 36
-35 -36 212
-213 208
-213 -211
-208 211 213
-214 -208
-214 211
208 -211 214
-215 -213
-215 -214
213 214 215
-216 -208
-216 -211
208 211 216
-217 -212
-217 -216
212 216 217
-218 -36
-218 37
36 -37 218
-219 36
-219 -37
-36 37 219
-220 -218
-220 -219
218 219 220
-221 36
-221 37
-36 -37 221
-222 217
-222 -220
-217 220 222
-223 -217
-223 220
217 -220 223
-224 -222
-224 -223
222 223 224
-225 -217
-225 -220
217 220 225
-226 -221
-226 -225
221 225 226
-227 -37
-227 38
37 -38 227
-228 37
-228 -38
-37 38 228
-229 -227
-229 -228
227 228 229
-230 37
-230 38
-37 -38 230
-231 226
-231 -229
-226 229 231
-232 -226
-232 229
226 -229 232
-233 -231
-233 -232
231 232 233
-234 -226
-234 -229
226 229 234
-235 -230
-235 -234
230 234 235
-236 -38
-236 39
38 -39 236
-237 38
-237 -39
-38 39 237
-238 -236
-238 -237
236 237 238
-239 38
-239 39
-38 -39 239
-240 235
-240 -238
-235 238 240
-241 -235
-241 238
235 -238 241
-242 -240
-242 -241
240 241 242
-243 -235
-243 -238
235 238 243
-244 -239
-244 -243
239 243 244
-245 -39
-245 40
39 -40 245
-246 39
-246 -40
-39 40 246
-247 -245
-247 -246
245 246 247
-248 39
-248 40
-39 -40 248
-249 244
-249 -247
-244 247 249
-250 -244
-250 247
244 -247 250
-251 -249
-251 -250
249 250 251
-252 -244
-252 -247
244 247 252
-253 -248
-253 -252
248 252 253
-254 -40
-254 41
40 -41 254
-255 40
-255 -41
-40 41 255
-256 -254
-256 -255
254 255 256
-257 40
-257 41
-40 -41 257
-258 253
-258 -256
-253 256 258
-259 -253
-259 256
253 -256 259
-260 -258
-260 -259
258 259 260
-261 -253
-261 -256
253 256 261
-262 -257
-262 -261
257 261 262
-263 -41
-263 42
41 -42 263
-264 41
-264 -42
-41 42 264
-265 -263
-265 -264
263 264 265
-266 41
-266 42
-41 -42 266
-267 262
-267 -265
-262 265 267
-268 -262
-268 265
262 -265 268
-269 -267
-269 -268
267 268 269
-270 -262
-270 -265
262 265 270
-271 -266
-271 -270
266 270 271
-272 19
-272 -71
-19 71 272
-273 -19
-273 21
19 -21 273
-274 -272
-274 -273
272 273 274
-275 19
-275 -80
-19 80 275
-276 -19
-276 22
19 -22 276
-277 -275
-277 -276
275 276 277
-278 19
-278 -89
-19 89 278
-279 -19
-279 23
19 -23 279
-280 -278
-280 -279
278 279 280
-281 19
-281 -98
-19 98 281
-282 -19
-282 24
19 -24 282
-283 -281
-283 -282
281 282 283
-284 19
-284 -107
-19 107 284
-285 -19
-285 25
19 -25 285
-286 -284
-286 -285
284 285 286
-287 19
-287 -116
-19 116 287
-288 -19
-288 26
19 -26 288
-289 -287
-289 -288
287 288 289
-290 19
-290 -125
-19 125 290
-291 -19
-291 27
19 -27 291
-292 -290
-292 -291
290 291 292
-293 19
-293 -134
-19 134 293
-294 -19
-294 28
19 -28 294
-295 -293
-295 -294
293 294 295
-296 19
-296 -143
-19 143 296
-297 -19
-297 29
19 -29 297
-298 -296
-298 -297
296 297 298
-299 19
-299 -152
-19 152 299
-300 -19
-300 30
19 -30 300
-301 -299
-301 -300
299 300 301
-302 19
-302 -161
-19 161 302
-303 -19
-303 31
19 -31 303
-304 -302
-304 -303
302 303 304
-305 19
-305 -170
-19 170 305
-306 -19
-306 32
19 -32 306
-307 -305
-307 -306
305 306 307
-308 19
-308 -179
-19 179 308
-309 -19
-309 33
19 -33 309
-310 -308
-310 -309
308 309 310
-311 19
-311 -188
-19 188 311
-312 -19
-312 34
19 -34 312
-313 -311
-313 -312
311 312 313
-314 19
-314 -197
-19 197 314
-315 -19
-315 35
19 -35 315
-316 -314
-316 -315
314 315 316
-317 19
-317 -206
-19 206 317
-318 -19
-318 36
19 -36 318
-319 -317
-319 -318
317 318 319
-320 19
-320 -215
-19 215 320
-321 -19
-321 37
19 -37 321
-322 -320
-322 -321
320 321 322
-323 19
-323 -224
-19 224 323
-324 -19
-324 38
19 -38 324
-325 -323
-325 -324
323 324 325
-326 19
-326 -233
-19 233 326
-327 -19
-327 39
19 -39 327
-328 -326
-328 -327
326 327 328
-329 19
-329 -242
-19 242 329
-330 -19
-330 40
19 -40 330
-331 -329
-331 -330
329 330 331
-332 19
-332 -251
-19 251 332
-333 -19
-333 41
19 -41 333
-334 -332
-334 -333
332 333 334
-335 19
-335 -260
-19 260 335
-336 -19
-336 42
19 -42 336
-337 -335
-337 -336
335 336 337
-338 19
-338 -269
-19 269 338
-339 1
-339 64
-1 -64 339
-340 -64
-340 65
64 -65 340
-341 -339
-341 -340
339 340 341
-342 2
-342 64
-2 -64 342
-343 -64
-343 -274
64 274 343
-344 -342
-344 -343
342 343 344
-345 3
-345 64
-3 -64 345
-346 -64
-346 -277
64 277 346
-347 -345
-347 -346
345 346 347
-348 4
-348 64
-4 -64 348
-349 -64
-349 -280
64 280 349
-350 -348
-350 -349
348 349 350
-351 5
-351 64
-5 -64 351
-352 -64
-352 -283
64 283 352
-353 -351
-353 -352
351 352 353
-354 6
-354 64
-6 -64 354
-355 -64
-355 -286
64 286 355
-356 -354
-356 -355
354 355 356
-357 7
-357 64
-7 -64 357
-358 -64
-358 -289
64 289 358
-359 -357
-359 -358
357 358 359
-360 8
-360 64
-8 -64 360
-361 -64
-361 -292
64 292 361
-362 -360
-362 -361
360 361 362
-363 9
-363 64
-9 -64 363
-364 -64
-364 -295
64 295 364
-365 -363
-365 -364
363 364 365
-366 10
-366 64
-10 -64 366
-367 -64
-367 -298
64 298 367
-368 -366
-368 -367
366 367 368
-369 11
-369 64
-11 -64 369
-370 -64
-370 -301
64 301 370
-371 -369
-371 -370
369 370 371
-372 12
-372 64
-12 -64 372
-373 -64
-373 -304
64 304 373
-374 -372
-374 -373
372 373 374
-375 13
-375 64
-13 -64 375
-376 -64
-376 -307
64 307 376
-377 -375
-377 -376
375 376 377
-378 14
-378 64
-14 -64 378
-379 -64
-379 -310
64 310 379
-380 -378
-380 -379
378 379 380
-381 15
-381 64
-15 -64 381
-382 -64
-382 -313
64 313 382
-383 -381
-383 -382
381 382 383
-384 16
-384 64
-16 -64 384
-385 -64
-385 -316
64 316 385
-386 -384
-386 -385
384 385 386
-387 17
-387 64
-17 -64 387
-388 -64
-388 -319
64 319 388
-389 -387
-389 -388
387 388 389
-390 18
-390 64
-18 -64 390
-391 -64
-391 -322
64 322 391
-392 -390
-392 -391
390 391 392
-393 -64
-393 -325
64 325 393
-394 -64
-394 -328
64 328 394
-395 -64
-395 -331
64 331 395
-396 -64
-396 -334
64 334 396
-397 -64
-397 -337
64 337 397
-398 -64
-398 338
64 -338 398
-399 -42
-399 271
42 -271 399
-400 19
-400 -399
-19 399 400
400
